n_res = 4;
rc = [ 23, 23, 28, 27 ];
n_tasks = 90;
d = [ 1, 6, 4, 2, 1, 10, 8, 1, 8, 3, 6, 8, 7, 10, 7, 4, 2, 7, 5, 10, 1, 2, 4, 3, 10, 6, 10, 9, 4, 6, 6, 6, 7, 10, 8, 2, 5, 2, 7, 6, 4, 2, 6, 10, 5, 9, 8, 7, 3, 8, 4, 3, 5, 9, 2, 1, 4, 7, 9, 3, 3, 9, 8, 1, 9, 5, 10, 2, 8, 6, 6, 6, 6, 6, 1, 9, 2, 1, 9, 9, 6, 5, 3, 1, 9, 10, 10, 4, 3, 7 ];
rr = [| 0, 0, 0, 0, 0, 0, 3, 0, 0, 0, 0, 0, 0, 0, 0, 5, 8, 4, 4, 0, 0, 0, 0, 0, 0, 0, 0, 6, 0, 0, 0, 10, 0, 0, 6, 0, 0, 0, 0, 0, 0, 0, 0, 0, 6, 6, 0, 0, 8, 0, 7, 0, 0, 3, 1, 0, 0, 0, 0, 0, 0, 0, 0, 0, 0, 0, 0, 0, 0, 4, 0, 1, 0, 0, 0, 0, 0, 0, 0, 0, 0, 0, 0, 0, 0, 0, 5, 4, 0, 0
      | 10, 0, 0, 0, 0, 2, 0, 4, 0, 0, 0, 0, 3, 8, 0, 0, 0, 0, 0, 4, 3, 3, 2, 0, 0, 0, 5, 0, 0, 2, 0, 0, 0, 0, 0, 4, 0, 3, 0, 0, 7, 0, 0, 0, 0, 0, 0, 7, 0, 0, 0, 0, 5, 0, 0, 0, 0, 10, 0, 0, 3, 0, 0, 0, 0, 0, 1, 0, 0, 0, 5, 0, 0, 3, 0, 0, 9, 0, 0, 0, 0, 0, 4, 0, 10, 0, 0, 0, 0, 0
      | 0, 7, 0, 9, 0, 0, 0, 0, 0, 4, 0, 0, 0, 0, 0, 0, 0, 0, 0, 0, 0, 0, 0, 2, 0, 0, 0, 0, 7, 0, 0, 0, 0, 0, 0, 0, 0, 0, 0, 0, 0, 0, 7, 1, 0, 0, 1, 0, 0, 10, 0, 0, 0, 0, 0, 0, 0, 0, 4, 0, 0, 7, 2, 0, 5, 0, 0, 0, 9, 0, 0, 0, 0, 0, 0, 4, 0, 8, 9, 9, 10, 9, 0, 0, 0, 7, 0, 0, 0, 0
      | 0, 0, 6, 0, 6, 0, 0, 0, 7, 0, 8, 2, 0, 0, 4, 0, 0, 0, 0, 0, 0, 0, 0, 0, 9, 5, 0, 0, 0, 0, 1, 0, 4, 8, 0, 0, 10, 0, 4, 5, 0, 10, 0, 0, 0, 0, 0, 0, 0, 0, 0, 10, 0, 0, 0, 4, 1, 0, 0, 1, 0, 0, 0, 3, 0, 10, 0, 9, 0, 0, 0, 0, 4, 0, 2, 0, 0, 0, 0, 0, 0, 0, 0, 2, 0, 0, 0, 0, 4, 4 |];
suc = [ { 4, 41, 45 },
       { 5, 22, 47 },
       { 5, 6, 15 },
       { 26, 28, 42 },
       { 13, 18, 63 },
       { 7, 8, 27 },
       { 9, 11, 17 },
       { 10, 12, 24 },
       { 29, 43 },
       { 30, 35, 89 },
       { 58, 67, 72 },
       { 14, 16, 21 },
       { 41, 44, 45 },
       { 23, 34, 48 },
       { 31, 39, 45 },
       { 19, 51, 78 },
       { 38, 50, 56 },
       { 20, 32, 50 },
       { 25, 42, 68 },
       { 65, 80 },
       { 29, 64 },
       { 32, 72 },
       { 74, 82 },
       { 37, 57, 73 },
       { 47, 48, 61 },
       { 34, 61, 82 },
       { 41, 71 },
       { 33, 56, 86 },
       { 32, 38, 62 },
       { 40, 55 },
       { 34, 64, 73 },
       { 35, 36, 42 },
       { 36, 37, 40 },
       { 40, 65 },
       { 73, 81 },
       { 48, 60 },
       { 38, 43, 53 },
       { 44, 46, 51 },
       { 54, 55, 76 },
       { 85 },
       { 46, 49, 67 },
       { 49, 55, 77 },
       { 49, 51, 66 },
       { 60, 68 },
       { 56, 78 },
       { 52, 60, 68 },
       { 59, 62, 63 },
       { 66, 90 },
       { 52 },
       { 52, 57, 64 },
       { 59, 87 },
       { 89 },
       { 63 },
       { 57, 80 },
       { 70 },
       { 59, 69, 71 },
       { 66, 71, 75 },
       { 61 },
       { 84 },
       { 79 },
       { 70, 77 },
       { 70, 76 },
       { 65, 69 },
       { 74, 75 },
       { 67 },
       { 83 },
       { 83, 84 },
       { 69, 74 },
       { 72, 89 },
       { 75, 85 },
       { 81 },
       { 76 },
       { 78, 86 },
       { 79 },
       { 86 },
       { 77, 81, 82 },
       { 79 },
       { 83 },
       { 80 },
       { 84 },
       { 90 },
       { 88 },
       { 85 },
       { 88, 90 },
       { 87 },
       { 87 },
       { 88 },
       {  },
       {  },
       {  } ];
